; 
(set-info :status unknown)
(declare-fun node_0x7ffff1449060 () (_ BitVec 1))
(declare-fun node_0x7ffff1449840 () (_ BitVec 1))
(declare-fun node_0x7ffff144b020 () (_ BitVec 1))
(declare-fun node_0x7ffff144d590 () (_ BitVec 1))
(declare-fun or_0x7ffff148e6b0 () (_ BitVec 1))
(declare-fun carg_node_0x7ffff1443b00 () (_ BitVec 64))
(declare-fun node_0x7ffff148c0d0 () (_ BitVec 64))
(declare-fun fogt_0x7ffff148e360 () (_ BitVec 1))
(declare-fun node_0x7ffff148e1c0 () (_ BitVec 1))
(declare-fun node_0x7ffff148dcd0 () (_ BitVec 1))
(declare-fun fule_0x7ffff148de50 () (_ BitVec 1))
(declare-fun node_0x7ffff148d890 () (_ BitVec 64))
(declare-fun select_0x7ffff148da30 () (_ BitVec 64))
(declare-fun node_0x7ffff148cf60 () (_ BitVec 64))
(declare-fun node_0x7ffff148a5e0 () (_ BitVec 64))
(declare-fun node_0x7ffff148d3a0 () (_ BitVec 1))
(declare-fun folt_0x7ffff148d520 () (_ BitVec 1))
(declare-fun fdiv_0x7ffff148a360 () (_ BitVec 64))
(declare-fun node_0x7ffff148a1c0 () (_ BitVec 64))
(declare-fun LdMem_0x7ffff1489e50 () (_ BitVec 64))
(declare-fun node_0x7ffff1489cd0 () (_ BitVec 64))
(declare-fun pcso_node_0x12a8ce50 () (_ BitVec 64))
(declare-fun StMem_0x12a8d000 () (_ BitVec 64))
(declare-fun R0x7ffff1443440 () (_ BitVec 1))
(declare-fun node_0x7ffff14891d0 () (_ BitVec 64))
(declare-fun fsub_0x7ffff1489370 () (_ BitVec 64))
(declare-fun LdMem_0x7ffff1480240 () (_ BitVec 64))
(declare-fun node_0x7ffff14881e0 () (_ BitVec 64))
(declare-fun node_0x7ffff1488d80 () (_ BitVec 64))
(declare-fun LdMem_0x7ffff1488f00 () (_ BitVec 64))
(declare-fun pcso_node_0x12a8a220 () (_ BitVec 64))
(declare-fun StMem_0x12a8a3d0 () (_ BitVec 64))
(declare-fun node_0x7ffff1484830 () (_ BitVec 64))
(declare-fun node_0x7ffff14483e0 () (_ BitVec 1))
(declare-fun node_0x7ffff1447850 () (_ BitVec 1))
(declare-fun fdiv_0x7ffff14849d0 () (_ BitVec 64))
(declare-fun LdMem_0x7ffff14844c0 () (_ BitVec 64))
(declare-fun node_0x7ffff1484340 () (_ BitVec 64))
(declare-fun pcso_node_0x12a814c0 () (_ BitVec 64))
(declare-fun StMem_0x12a81670 () (_ BitVec 64))
(declare-fun node_0x7ffff1483840 () (_ BitVec 64))
(declare-fun fsub_0x7ffff14839e0 () (_ BitVec 64))
(declare-fun LdMem_0x7ffff14829f0 () (_ BitVec 64))
(declare-fun node_0x7ffff1482850 () (_ BitVec 64))
(declare-fun node_0x7ffff14833f0 () (_ BitVec 64))
(declare-fun LdMem_0x7ffff1483570 () (_ BitVec 64))
(declare-fun pcso_node_0x12a7e890 () (_ BitVec 64))
(declare-fun StMem_0x12a7ea40 () (_ BitVec 64))
(declare-fun select_0x7ffff148d100 () (_ BitVec 64))
(declare-fun node_0x7ffff147f140 () (_ BitVec 64))
(declare-fun node_0x7ffff1474e20 () (_ BitVec 64))
(declare-fun node_0x7ffff148ca70 () (_ BitVec 1))
(declare-fun folt_0x7ffff148cbf0 () (_ BitVec 1))
(declare-fun fmul_0x7ffff147ef10 () (_ BitVec 64))
(declare-fun node_0x7ffff147ed70 () (_ BitVec 64))
(declare-fun node_0x7ffff147aea0 () (_ BitVec 64))
(declare-fun node_0x7ffff147e9a0 () (_ BitVec 64))
(declare-fun fsub_0x7ffff147eb40 () (_ BitVec 64))
(declare-fun LdMem_0x7ffff14754c0 () (_ BitVec 64))
(declare-fun node_0x7ffff147d9b0 () (_ BitVec 64))
(declare-fun node_0x7ffff147e550 () (_ BitVec 64))
(declare-fun LdMem_0x7ffff147e6d0 () (_ BitVec 64))
(declare-fun pcso_node_0x12a755f0 () (_ BitVec 64))
(declare-fun StMem_0x12a757a0 () (_ BitVec 64))
(declare-fun node_0x7ffff147a130 () (_ BitVec 64))
(declare-fun node_0x7ffff1446bd0 () (_ BitVec 1))
(declare-fun node_0x7ffff1446040 () (_ BitVec 1))
(declare-fun fmul_0x7ffff147a2d0 () (_ BitVec 64))
(declare-fun node_0x7ffff14763a0 () (_ BitVec 64))
(declare-fun node_0x7ffff1479d60 () (_ BitVec 64))
(declare-fun fsub_0x7ffff1479f00 () (_ BitVec 64))
(declare-fun LdMem_0x7ffff1478f60 () (_ BitVec 64))
(declare-fun node_0x7ffff1478dc0 () (_ BitVec 64))
(declare-fun node_0x7ffff1479960 () (_ BitVec 64))
(declare-fun LdMem_0x7ffff1479ae0 () (_ BitVec 64))
(declare-fun pcso_node_0x12a6f630 () (_ BitVec 64))
(declare-fun StMem_0x12a6f7e0 () (_ BitVec 64))
(declare-fun fmul_0x7ffff1474640 () (_ BitVec 64))
(declare-fun node_0x7ffff14744a0 () (_ BitVec 64))
(declare-fun node_0x7ffff1470cc0 () (_ BitVec 64))
(declare-fun node_0x7ffff14740d0 () (_ BitVec 64))
(declare-fun fsub_0x7ffff1474270 () (_ BitVec 64))
(declare-fun LdMem_0x7ffff146d200 () (_ BitVec 64))
(declare-fun node_0x7ffff14730e0 () (_ BitVec 64))
(declare-fun node_0x7ffff1473c80 () (_ BitVec 64))
(declare-fun LdMem_0x7ffff1473e00 () (_ BitVec 64))
(declare-fun pcso_node_0x12a69050 () (_ BitVec 64))
(declare-fun StMem_0x12a69230 () (_ BitVec 64))
(declare-fun node_0x7ffff146ff40 () (_ BitVec 64))
(declare-fun node_0x7ffff1445290 () (_ BitVec 1))
(declare-fun node_0x7ffff1444e70 () (_ BitVec 1))
(declare-fun fmul_0x7ffff14700e0 () (_ BitVec 64))
(declare-fun node_0x7ffff146c880 () (_ BitVec 64))
(declare-fun node_0x7ffff146fb70 () (_ BitVec 64))
(declare-fun fsub_0x7ffff146fd10 () (_ BitVec 64))
(declare-fun LdMem_0x7ffff146ed00 () (_ BitVec 64))
(declare-fun node_0x7ffff146eb80 () (_ BitVec 64))
(declare-fun node_0x7ffff146f720 () (_ BitVec 64))
(declare-fun LdMem_0x7ffff146f8a0 () (_ BitVec 64))
(declare-fun pcso_node_0x12a63090 () (_ BitVec 64))
(declare-fun StMem_0x12a63270 () (_ BitVec 64))
(declare-fun fogt_0x7ffff148ece0 () (_ BitVec 1))
(declare-fun carg_node_0x7ffff1443950 () (_ BitVec 64))
(declare-fun node_0x7ffff148b380 () (_ BitVec 64))
(declare-fun node_0x7ffff148a910 () (_ BitVec 64))
(declare-fun node_0x7ffff148bbe0 () (_ BitVec 1))
(declare-fun select_0x7ffff148c270 () (_ BitVec 64))
(declare-fun node_0x7ffff148c630 () (_ BitVec 32))
(declare-fun islt_0x7ffff148f300 () (_ BitVec 1))
(declare-fun ieq_0x7ffff1490840 () (_ BitVec 1))
(declare-fun select_0x7ffff148c7d0 () (_ BitVec 32))
(declare-fun node_0x7ffff148aef0 () (_ BitVec 1))
(declare-fun select_0x7ffff148b940 () (_ BitVec 32))
(declare-fun node_0x7ffff148b7c0 () (_ BitVec 32))
(declare-fun fogt_0x7ffff148bd60 () (_ BitVec 1))
(declare-fun fdiv_0x7ffff1487b60 () (_ BitVec 64))
(declare-fun node_0x7ffff14879c0 () (_ BitVec 64))
(declare-fun LdMem_0x7ffff1487650 () (_ BitVec 64))
(declare-fun node_0x7ffff14874d0 () (_ BitVec 64))
(declare-fun pcso_node_0x12a87240 () (_ BitVec 64))
(declare-fun StMem_0x12a873f0 () (_ BitVec 64))
(declare-fun node_0x7ffff14868c0 () (_ BitVec 64))
(declare-fun fsub_0x7ffff1486a60 () (_ BitVec 64))
(declare-fun LdMem_0x7ffff14865f0 () (_ BitVec 64))
(declare-fun node_0x7ffff1486470 () (_ BitVec 64))
(declare-fun pcso_node_0x12a844a0 () (_ BitVec 64))
(declare-fun StMem_0x12a84650 () (_ BitVec 64))
(declare-fun node_0x7ffff1485920 () (_ BitVec 64))
(declare-fun pcso_node_0x12a5d2d0 () (_ BitVec 64))
(declare-fun StMem_0x12a5d480 () (_ BitVec 64))
(declare-fun node_0x7ffff1482030 () (_ BitVec 64))
(declare-fun node_0x7ffff146b6d0 () (_ BitVec 64))
(declare-fun folt_0x7ffff1484c50 () (_ BitVec 1))
(declare-fun fogt_0x7ffff147fa50 () (_ BitVec 1))
(declare-fun LdMem_0x7ffff146b850 () (_ BitVec 64))
(declare-fun pcso_node_0x12a57ae0 () (_ BitVec 64))
(declare-fun StMem_0x12a57c90 () (_ BitVec 64))
(declare-fun fdiv_0x7ffff14821d0 () (_ BitVec 64))
(declare-fun LdMem_0x7ffff1481cc0 () (_ BitVec 64))
(declare-fun node_0x7ffff1481b40 () (_ BitVec 64))
(declare-fun pcso_node_0x12a7b780 () (_ BitVec 64))
(declare-fun StMem_0x12a7b930 () (_ BitVec 64))
(declare-fun node_0x7ffff1481040 () (_ BitVec 64))
(declare-fun fsub_0x7ffff14811e0 () (_ BitVec 64))
(declare-fun LdMem_0x7ffff1480d70 () (_ BitVec 64))
(declare-fun node_0x7ffff1480bf0 () (_ BitVec 64))
(declare-fun pcso_node_0x12a78b50 () (_ BitVec 64))
(declare-fun StMem_0x12a78d00 () (_ BitVec 64))
(declare-fun node_0x7ffff14800a0 () (_ BitVec 64))
(declare-fun pcso_node_0x12a5aa40 () (_ BitVec 64))
(declare-fun StMem_0x12a5abf0 () (_ BitVec 64))
(declare-fun select_0x7ffff148b520 () (_ BitVec 64))
(declare-fun node_0x7ffff147f470 () (_ BitVec 64))
(declare-fun node_0x7ffff14757a0 () (_ BitVec 64))
(declare-fun fogt_0x7ffff148b050 () (_ BitVec 1))
(declare-fun fmul_0x7ffff1466690 () (_ BitVec 64))
(declare-fun node_0x7ffff14664f0 () (_ BitVec 64))
(declare-fun fdiv_0x7ffff147b010 () (_ BitVec 64))
(declare-fun node_0x7ffff146ab20 () (_ BitVec 64))
(declare-fun node_0x7ffff147c610 () (_ BitVec 64))
(declare-fun fsub_0x7ffff14662c0 () (_ BitVec 64))
(declare-fun LdMem_0x7ffff147c340 () (_ BitVec 64))
(declare-fun node_0x7ffff147c1c0 () (_ BitVec 64))
(declare-fun pcso_node_0x12a72610 () (_ BitVec 64))
(declare-fun StMem_0x12a727c0 () (_ BitVec 64))
(declare-fun node_0x7ffff147b670 () (_ BitVec 64))
(declare-fun pcso_node_0x12a5ce80 () (_ BitVec 64))
(declare-fun StMem_0x12a5d030 () (_ BitVec 64))
(declare-fun node_0x7ffff14785d0 () (_ BitVec 64))
(declare-fun folt_0x7ffff147a500 () (_ BitVec 1))
(declare-fun fogt_0x7ffff1475f20 () (_ BitVec 1))
(declare-fun LdMem_0x7ffff146aca0 () (_ BitVec 64))
(declare-fun pcso_node_0x12a55260 () (_ BitVec 64))
(declare-fun StMem_0x12a55410 () (_ BitVec 64))
(declare-fun fmul_0x7ffff1478770 () (_ BitVec 64))
(declare-fun fdiv_0x7ffff1476d20 () (_ BitVec 64))
(declare-fun node_0x7ffff1478200 () (_ BitVec 64))
(declare-fun fsub_0x7ffff14783a0 () (_ BitVec 64))
(declare-fun LdMem_0x7ffff1477f30 () (_ BitVec 64))
(declare-fun node_0x7ffff1477db0 () (_ BitVec 64))
(declare-fun pcso_node_0x12a6c570 () (_ BitVec 64))
(declare-fun StMem_0x12a6c720 () (_ BitVec 64))
(declare-fun node_0x7ffff1477350 () (_ BitVec 64))
(declare-fun pcso_node_0x12a5a5f0 () (_ BitVec 64))
(declare-fun StMem_0x12a5a7a0 () (_ BitVec 64))
(declare-fun fmul_0x7ffff1472ab0 () (_ BitVec 64))
(declare-fun node_0x7ffff1472910 () (_ BitVec 64))
(declare-fun fdiv_0x7ffff1470e30 () (_ BitVec 64))
(declare-fun node_0x7ffff1469fe0 () (_ BitVec 64))
(declare-fun node_0x7ffff1472540 () (_ BitVec 64))
(declare-fun fsub_0x7ffff14726e0 () (_ BitVec 64))
(declare-fun LdMem_0x7ffff1472270 () (_ BitVec 64))
(declare-fun node_0x7ffff14720f0 () (_ BitVec 64))
(declare-fun pcso_node_0x12a66070 () (_ BitVec 64))
(declare-fun StMem_0x12a66250 () (_ BitVec 64))
(declare-fun node_0x7ffff1471490 () (_ BitVec 64))
(declare-fun pcso_node_0x12a5ca80 () (_ BitVec 64))
(declare-fun StMem_0x12a5cc60 () (_ BitVec 64))
(declare-fun node_0x7ffff146e380 () (_ BitVec 64))
(declare-fun folt_0x7ffff14705a0 () (_ BitVec 1))
(declare-fun fogt_0x7ffff146c340 () (_ BitVec 1))
(declare-fun LdMem_0x7ffff146a160 () (_ BitVec 64))
(declare-fun pcso_node_0x12a52ff0 () (_ BitVec 64))
(declare-fun StMem_0x12a531d0 () (_ BitVec 64))
(declare-fun fmul_0x7ffff146e520 () (_ BitVec 64))
(declare-fun fdiv_0x7ffff146c9f0 () (_ BitVec 64))
(declare-fun node_0x7ffff146dfb0 () (_ BitVec 64))
(declare-fun fsub_0x7ffff146e150 () (_ BitVec 64))
(declare-fun LdMem_0x7ffff146dd30 () (_ BitVec 64))
(declare-fun node_0x7ffff146dbb0 () (_ BitVec 64))
(declare-fun pcso_node_0x12a5ffb0 () (_ BitVec 64))
(declare-fun StMem_0x12a60190 () (_ BitVec 64))
(declare-fun node_0x7ffff146d080 () (_ BitVec 64))
(declare-fun pcso_node_0x12a5a1f0 () (_ BitVec 64))
(declare-fun StMem_0x12a5a3d0 () (_ BitVec 64))
(declare-fun node_0x12a56ef0 () (_ BitVec 64))
(declare-fun parg_node_0x107b61b0_CS0x406d048 () (_ BitVec 64))
(declare-fun LdMem_0x12a56cc0 () (_ BitVec 64))
(declare-fun parg_node_0x12a52970 () (_ BitVec 64))
(declare-fun StMem_0x12a527c0 () (_ BitVec 64))
(declare-fun node_0x107b7d30_CS0x406d048 () (_ BitVec 64))
(declare-fun node_0x12a59e80 () (_ BitVec 64))
(declare-fun parg_node_0x12a4df10_CS0x406d548 () (_ BitVec 64))
(declare-fun LdMem_0x12a59830 () (_ BitVec 64))
(declare-fun parg_node_0x12a59b50 () (_ BitVec 64))
(declare-fun StMem_0x12a599a0 () (_ BitVec 64))
(declare-fun node_0x12a4fab0_CS0x406d548 () (_ BitVec 64))
(declare-fun node_0x12a77f30 () (_ BitVec 64))
(declare-fun parg_node_0x107ae730_CS0x4072bc8 () (_ BitVec 64))
(declare-fun LdMem_0x12a77bc0 () (_ BitVec 64))
(declare-fun parg_node_0x12a5f7d0 () (_ BitVec 64))
(declare-fun StMem_0x12a5f620 () (_ BitVec 64))
(declare-fun node_0x107b0280_CS0x4072bc8 () (_ BitVec 64))
(declare-fun node_0x12a7ab60 () (_ BitVec 64))
(declare-fun parg_node_0x107b61b0_CS0x4072e38 () (_ BitVec 64))
(declare-fun LdMem_0x12a7a7f0 () (_ BitVec 64))
(declare-fun node_0x107b7d30_CS0x4072e38 () (_ BitVec 64))
(declare-fun node_0x12a5c710 () (_ BitVec 64))
(declare-fun parg_node_0x12a497d0_CS0x406d7b8 () (_ BitVec 64))
(declare-fun LdMem_0x12a5c060 () (_ BitVec 64))
(declare-fun parg_node_0x12a5c380 () (_ BitVec 64))
(declare-fun StMem_0x12a5c1d0 () (_ BitVec 64))
(declare-fun node_0x12a4b3d0_CS0x406d7b8 () (_ BitVec 64))
(declare-fun node_0x12a83880 () (_ BitVec 64))
(declare-fun parg_node_0x107ae730_CS0x4074038 () (_ BitVec 64))
(declare-fun LdMem_0x12a83510 () (_ BitVec 64))
(declare-fun node_0x107b0280_CS0x4074038 () (_ BitVec 64))
(declare-fun carg_node_0x7ffff1443e00 () (_ BitVec 64))
(assert
 (let (($x275 (= node_0x7ffff1449060 (_ bv1 1))))
 (let (($x207 (not $x275)))
 (let (($x236 (= node_0x7ffff1449840 (_ bv1 1))))
 (let (($x814 (and $x236 $x207)))
 (let (($x261 (= node_0x7ffff144b020 (_ bv1 1))))
 (let (($x821 (and $x261 $x814)))
 (let (($x265 (= node_0x7ffff144d590 (_ bv1 1))))
 (and $x265 $x821)))))))))
(assert
 (let (($x924 (= node_0x7ffff1449060 or_0x7ffff148e6b0)))
 (let (($x813 (= fogt_0x7ffff148e360 (ite (bvsgt node_0x7ffff148c0d0 carg_node_0x7ffff1443b00) (_ bv1 1) (_ bv0 1)))))
 (let (($x105 (= node_0x7ffff148e1c0 fogt_0x7ffff148e360)))
 (let ((?x238 (bvor node_0x7ffff148dcd0 node_0x7ffff148e1c0)))
 (let (($x268 (= or_0x7ffff148e6b0 ?x238)))
 (let (($x535 (= node_0x7ffff148dcd0 fule_0x7ffff148de50)))
 (let (($x250 (bvsle node_0x7ffff148d890 node_0x7ffff148c0d0)))
 (let ((?x266 (ite $x250 (_ bv1 1) (_ bv0 1))))
 (let (($x267 (= fule_0x7ffff148de50 ?x266)))
 (let (($x1113 (= node_0x7ffff148d890 select_0x7ffff148da30)))
 (let (($x277 (= node_0x7ffff148d3a0 (_ bv1 1))))
 (let ((?x278 (ite $x277 node_0x7ffff148a5e0 node_0x7ffff148cf60)))
 (let (($x279 (= select_0x7ffff148da30 ?x278)))
 (let (($x1179 (= node_0x7ffff148d3a0 folt_0x7ffff148d520)))
 (let (($x284 (= folt_0x7ffff148d520 (ite (bvslt node_0x7ffff148a5e0 node_0x7ffff148cf60) (_ bv1 1) (_ bv0 1)))))
 (let (($x758 (= node_0x7ffff148a1c0 fdiv_0x7ffff148a360)))
 (let (($x854 (= node_0x7ffff1489cd0 LdMem_0x7ffff1489e50)))
 (let (($x568 (= LdMem_0x7ffff1489e50 StMem_0x12a8d000)))
 (let (($x353 (or (or (= node_0x7ffff14891d0 (_ bv0 64)) (= node_0x7ffff1489cd0 (_ bv0 64))) (and (distinct fdiv_0x7ffff148a360 (_ bv0 64)) true))))
 (let (($x348 (= fdiv_0x7ffff148a360 (bvsdiv node_0x7ffff14891d0 node_0x7ffff1489cd0))))
 (let (($x354 (and $x348 $x353)))
 (let (($x1047 (= node_0x7ffff14891d0 fsub_0x7ffff1489370)))
 (let (($x1248 (= node_0x7ffff14881e0 LdMem_0x7ffff1480240)))
 (let (($x360 (= fsub_0x7ffff1489370 (bvsub node_0x7ffff14881e0 node_0x7ffff1488d80))))
 (let (($x1256 (= node_0x7ffff1488d80 LdMem_0x7ffff1488f00)))
 (let (($x155 (= LdMem_0x7ffff1488f00 StMem_0x12a8a3d0)))
 (let (($x726 (= node_0x7ffff148a5e0 (_ bv0 64))))
 (let (($x42 (= node_0x7ffff148a5e0 node_0x7ffff148a1c0)))
 (let (($x1217 (= node_0x7ffff148a5e0 node_0x7ffff1484830)))
 (let (($x253 (= node_0x7ffff14483e0 (_ bv1 1))))
 (let (($x972 (not $x253)))
 (let (($x240 (= node_0x7ffff1447850 (_ bv1 1))))
 (let (($x246 (not $x240)))
 (let (($x719 (not (and $x246 $x972))))
 (let (($x888 (or $x246 $x1217)))
 (let (($x149 (= node_0x7ffff1484830 fdiv_0x7ffff14849d0)))
 (let (($x1262 (= node_0x7ffff1484340 LdMem_0x7ffff14844c0)))
 (let (($x326 (= LdMem_0x7ffff14844c0 StMem_0x12a81670)))
 (let (($x314 (or (or (= node_0x7ffff1483840 (_ bv0 64)) (= node_0x7ffff1484340 (_ bv0 64))) (and (distinct fdiv_0x7ffff14849d0 (_ bv0 64)) true))))
 (let (($x309 (= fdiv_0x7ffff14849d0 (bvsdiv node_0x7ffff1483840 node_0x7ffff1484340))))
 (let (($x315 (and $x309 $x314)))
 (let (($x1057 (= node_0x7ffff1483840 fsub_0x7ffff14839e0)))
 (let (($x861 (= node_0x7ffff1482850 LdMem_0x7ffff14829f0)))
 (let (($x321 (= fsub_0x7ffff14839e0 (bvsub node_0x7ffff1482850 node_0x7ffff14833f0))))
 (let (($x1193 (= node_0x7ffff14833f0 LdMem_0x7ffff1483570)))
 (let (($x1053 (= LdMem_0x7ffff1483570 StMem_0x12a7ea40)))
 (let (($x490 (= node_0x7ffff148cf60 select_0x7ffff148d100)))
 (let (($x387 (= node_0x7ffff148ca70 (_ bv1 1))))
 (let ((?x388 (ite $x387 node_0x7ffff1474e20 node_0x7ffff147f140)))
 (let (($x389 (= select_0x7ffff148d100 ?x388)))
 (let (($x1213 (= node_0x7ffff148ca70 folt_0x7ffff148cbf0)))
 (let (($x1257 (= node_0x7ffff147ed70 fmul_0x7ffff147ef10)))
 (let (($x562 (= node_0x7ffff147aea0 (_ bv0 64))))
 (let (($x561 (= node_0x7ffff147e9a0 (_ bv0 64))))
 (let (($x563 (or $x561 $x562)))
 (let (($x560 (= fmul_0x7ffff147ef10 (bvmul node_0x7ffff147e9a0 node_0x7ffff147aea0))))
 (let (($x566 (and $x560 (or $x563 (and (distinct fmul_0x7ffff147ef10 (_ bv0 64)) true)))))
 (let (($x938 (= node_0x7ffff147e9a0 fsub_0x7ffff147eb40)))
 (let (($x1142 (= node_0x7ffff147d9b0 LdMem_0x7ffff14754c0)))
 (let (($x572 (= fsub_0x7ffff147eb40 (bvsub node_0x7ffff147d9b0 node_0x7ffff147e550))))
 (let (($x902 (= node_0x7ffff147e550 LdMem_0x7ffff147e6d0)))
 (let (($x151 (= LdMem_0x7ffff147e6d0 StMem_0x12a757a0)))
 (let (($x1220 (= node_0x7ffff147f140 (_ bv0 64))))
 (let (($x1244 (= node_0x7ffff147f140 node_0x7ffff147ed70)))
 (let (($x934 (= node_0x7ffff147f140 node_0x7ffff147a130)))
 (let (($x228 (= node_0x7ffff1446bd0 (_ bv1 1))))
 (let (($x74 (not $x228)))
 (let (($x218 (= node_0x7ffff1446040 (_ bv1 1))))
 (let (($x229 (not $x218)))
 (let (($x944 (not (and $x229 $x74))))
 (let (($x1131 (or $x229 $x934)))
 (let (($x996 (= node_0x7ffff147a130 fmul_0x7ffff147a2d0)))
 (let (($x521 (= node_0x7ffff14763a0 (_ bv0 64))))
 (let (($x520 (= node_0x7ffff1479d60 (_ bv0 64))))
 (let (($x522 (or $x520 $x521)))
 (let ((?x518 (bvmul node_0x7ffff1479d60 node_0x7ffff14763a0)))
 (let (($x519 (= fmul_0x7ffff147a2d0 ?x518)))
 (let (($x525 (and $x519 (or $x522 (and (distinct fmul_0x7ffff147a2d0 (_ bv0 64)) true)))))
 (let (($x743 (= node_0x7ffff1479d60 fsub_0x7ffff1479f00)))
 (let (($x1225 (= node_0x7ffff1478dc0 LdMem_0x7ffff1478f60)))
 (let (($x531 (= fsub_0x7ffff1479f00 (bvsub node_0x7ffff1478dc0 node_0x7ffff1479960))))
 (let (($x847 (= node_0x7ffff1479960 LdMem_0x7ffff1479ae0)))
 (let (($x897 (= StMem_0x12a6f7e0 pcso_node_0x12a6f630)))
 (let (($x1102 (= LdMem_0x7ffff1479ae0 StMem_0x12a6f7e0)))
 (let (($x394 (= folt_0x7ffff148cbf0 (ite (bvslt node_0x7ffff1474e20 node_0x7ffff147f140) (_ bv1 1) (_ bv0 1)))))
 (let (($x873 (= node_0x7ffff14744a0 fmul_0x7ffff1474640)))
 (let (($x467 (or (or (= node_0x7ffff14740d0 (_ bv0 64)) (= node_0x7ffff1470cc0 (_ bv0 64))) (and (distinct fmul_0x7ffff1474640 (_ bv0 64)) true))))
 (let (($x462 (= fmul_0x7ffff1474640 (bvmul node_0x7ffff14740d0 node_0x7ffff1470cc0))))
 (let (($x468 (and $x462 $x467)))
 (let (($x70 (= node_0x7ffff14740d0 fsub_0x7ffff1474270)))
 (let (($x920 (= node_0x7ffff14730e0 LdMem_0x7ffff146d200)))
 (let (($x474 (= fsub_0x7ffff1474270 (bvsub node_0x7ffff14730e0 node_0x7ffff1473c80))))
 (let (($x60 (= node_0x7ffff1473c80 LdMem_0x7ffff1473e00)))
 (let (($x90 (= LdMem_0x7ffff1473e00 StMem_0x12a69230)))
 (let (($x1173 (= node_0x7ffff1474e20 (_ bv0 64))))
 (let (($x947 (= node_0x7ffff1474e20 node_0x7ffff14744a0)))
 (let (($x130 (= node_0x7ffff1474e20 node_0x7ffff146ff40)))
 (let (($x1072 (or $x130 $x947 $x1173)))
 (let (($x197 (= node_0x7ffff1445290 (_ bv1 1))))
 (let (($x986 (not $x197)))
 (let (($x168 (= node_0x7ffff1444e70 (_ bv1 1))))
 (let (($x191 (not $x168)))
 (let (($x95 (not (and $x191 $x986))))
 (let (($x778 (or $x191 $x130)))
 (let (($x1215 (= node_0x7ffff146ff40 fmul_0x7ffff14700e0)))
 (let (($x421 (= node_0x7ffff146c880 (_ bv0 64))))
 (let (($x420 (= node_0x7ffff146fb70 (_ bv0 64))))
 (let (($x422 (or $x420 $x421)))
 (let ((?x418 (bvmul node_0x7ffff146fb70 node_0x7ffff146c880)))
 (let (($x419 (= fmul_0x7ffff14700e0 ?x418)))
 (let (($x425 (and $x419 (or $x422 (and (distinct fmul_0x7ffff14700e0 (_ bv0 64)) true)))))
 (let (($x958 (= node_0x7ffff146fb70 fsub_0x7ffff146fd10)))
 (let (($x409 (= node_0x7ffff146eb80 LdMem_0x7ffff146ed00)))
 (let (($x431 (= fsub_0x7ffff146fd10 (bvsub node_0x7ffff146eb80 node_0x7ffff146f720))))
 (let (($x144 (= node_0x7ffff146f720 LdMem_0x7ffff146f8a0)))
 (let (($x1159 (= LdMem_0x7ffff146f8a0 StMem_0x12a63270)))
 (let (($x820 (= fogt_0x7ffff148ece0 (ite (bvsgt node_0x7ffff148c0d0 carg_node_0x7ffff1443950) (_ bv1 1) (_ bv0 1)))))
 (let (($x598 (= node_0x7ffff148bbe0 (_ bv1 1))))
 (let ((?x599 (ite $x598 node_0x7ffff148a910 node_0x7ffff148b380)))
 (let (($x600 (= select_0x7ffff148c270 ?x599)))
 (let (($x584 (= node_0x7ffff148c0d0 select_0x7ffff148c270)))
 (let ((?x827 (ite (bvslt node_0x7ffff148c630 (_ bv1 32)) (_ bv1 1) (_ bv0 1))))
 (let (($x828 (= islt_0x7ffff148f300 ?x827)))
 (let (($x843 (= node_0x7ffff148c630 (_ bv0 32))))
 (let ((?x844 (ite $x843 (_ bv1 1) (_ bv0 1))))
 (let (($x845 (= ieq_0x7ffff1490840 ?x844)))
 (let (($x686 (= node_0x7ffff148aef0 (_ bv1 1))))
 (let ((?x838 (ite $x686 (_ bv0 32) (_ bv1 32))))
 (let (($x839 (= select_0x7ffff148b940 ?x838)))
 (let (($x948 (= node_0x7ffff148b7c0 select_0x7ffff148b940)))
 (let ((?x833 (ite $x598 (_ bv2 32) node_0x7ffff148b7c0)))
 (let (($x834 (= select_0x7ffff148c7d0 ?x833)))
 (let (($x1265 (= node_0x7ffff148bbe0 fogt_0x7ffff148bd60)))
 (let (($x605 (= fogt_0x7ffff148bd60 (ite (bvsgt node_0x7ffff148a910 node_0x7ffff148b380) (_ bv1 1) (_ bv0 1)))))
 (let (($x879 (= node_0x7ffff14879c0 fdiv_0x7ffff1487b60)))
 (let (($x1154 (= node_0x7ffff14874d0 LdMem_0x7ffff1487650)))
 (let (($x71 (= LdMem_0x7ffff1487650 StMem_0x12a873f0)))
 (let (($x658 (or (or (= node_0x7ffff14868c0 (_ bv0 64)) (= node_0x7ffff14874d0 (_ bv0 64))) (and (distinct fdiv_0x7ffff1487b60 (_ bv0 64)) true))))
 (let (($x653 (= fdiv_0x7ffff1487b60 (bvsdiv node_0x7ffff14868c0 node_0x7ffff14874d0))))
 (let (($x659 (and $x653 $x658)))
 (let (($x1227 (= node_0x7ffff14868c0 fsub_0x7ffff1486a60)))
 (let (($x951 (= node_0x7ffff1486470 LdMem_0x7ffff14865f0)))
 (let (($x1171 (= LdMem_0x7ffff14865f0 StMem_0x12a84650)))
 (let (($x665 (= fsub_0x7ffff1486a60 (bvsub node_0x7ffff1485920 node_0x7ffff1486470))))
 (let (($x1224 (= StMem_0x12a5d480 pcso_node_0x12a5d2d0)))
 (let (($x1048 (= LdMem_0x7ffff14829f0 StMem_0x12a5d480)))
 (let (($x581 (= node_0x7ffff148a910 (_ bv0 64))))
 (let (($x121 (= node_0x7ffff148a910 node_0x7ffff14879c0)))
 (let (($x131 (= node_0x7ffff148a910 node_0x7ffff1482030)))
 (let (($x214 (= folt_0x7ffff1484c50 (ite (bvslt node_0x7ffff146b6d0 (_ bv0 64)) (_ bv1 1) (_ bv0 1)))))
 (let (($x1029 (= node_0x7ffff14483e0 folt_0x7ffff1484c50)))
 (let (($x96 (or $x246 $x131)))
 (let (($x396 (= node_0x7ffff1447850 fogt_0x7ffff147fa50)))
 (let (($x234 (= fogt_0x7ffff147fa50 (ite (bvsgt node_0x7ffff146b6d0 (_ bv0 64)) (_ bv1 1) (_ bv0 1)))))
 (let (($x916 (= node_0x7ffff146b6d0 LdMem_0x7ffff146b850)))
 (let (($x1229 (= LdMem_0x7ffff146b850 StMem_0x12a57c90)))
 (let (($x698 (= node_0x7ffff1482030 fdiv_0x7ffff14821d0)))
 (let (($x953 (= node_0x7ffff1481b40 LdMem_0x7ffff1481cc0)))
 (let (($x645 (= LdMem_0x7ffff1481cc0 StMem_0x12a7b930)))
 (let (($x622 (= node_0x7ffff1481b40 (_ bv0 64))))
 (let (($x621 (= node_0x7ffff1481040 (_ bv0 64))))
 (let (($x623 (or $x621 $x622)))
 (let (($x620 (= fdiv_0x7ffff14821d0 (bvsdiv node_0x7ffff1481040 node_0x7ffff1481b40))))
 (let (($x626 (and $x620 (or $x623 (and (distinct fdiv_0x7ffff14821d0 (_ bv0 64)) true)))))
 (let (($x959 (= node_0x7ffff1481040 fsub_0x7ffff14811e0)))
 (let (($x333 (= node_0x7ffff1480bf0 LdMem_0x7ffff1480d70)))
 (let (($x853 (= LdMem_0x7ffff1480d70 StMem_0x12a78d00)))
 (let (($x632 (= fsub_0x7ffff14811e0 (bvsub node_0x7ffff14800a0 node_0x7ffff1480bf0))))
 (let (($x1281 (= StMem_0x12a5abf0 pcso_node_0x12a5aa40)))
 (let (($x1125 (= LdMem_0x7ffff1480240 StMem_0x12a5abf0)))
 (let (($x1081 (= node_0x7ffff148b380 select_0x7ffff148b520)))
 (let ((?x687 (ite $x686 node_0x7ffff14757a0 node_0x7ffff147f470)))
 (let (($x688 (= select_0x7ffff148b520 ?x687)))
 (let (($x867 (= node_0x7ffff148aef0 fogt_0x7ffff148b050)))
 (let (($x1019 (= node_0x7ffff14664f0 fmul_0x7ffff1466690)))
 (let (($x550 (= node_0x7ffff146ab20 (_ bv0 64))))
 (let (($x451 (= (_ bv1 64) (_ bv0 64))))
 (let (($x551 (or $x451 $x550)))
 (let (($x592 (and (= fdiv_0x7ffff147b010 (bvsdiv (_ bv1 64) node_0x7ffff146ab20)) (or $x551 (and (distinct fdiv_0x7ffff147b010 (_ bv0 64)) true)))))
 (let (($x792 (or (or (= node_0x7ffff147c610 (_ bv0 64)) $x562) (and (distinct fmul_0x7ffff1466690 (_ bv0 64)) true))))
 (let (($x788 (= fmul_0x7ffff1466690 (bvmul node_0x7ffff147c610 node_0x7ffff147aea0))))
 (let (($x793 (and $x788 $x792)))
 (let (($x1242 (= node_0x7ffff147c610 fsub_0x7ffff14662c0)))
 (let (($x1184 (= node_0x7ffff147c1c0 LdMem_0x7ffff147c340)))
 (let (($x978 (= LdMem_0x7ffff147c340 StMem_0x12a727c0)))
 (let (($x799 (= fsub_0x7ffff14662c0 (bvsub node_0x7ffff147b670 node_0x7ffff147c1c0))))
 (let (($x111 (= LdMem_0x7ffff1478f60 StMem_0x12a5d030)))
 (let (($x442 (= node_0x7ffff147f470 (_ bv0 64))))
 (let (($x501 (= node_0x7ffff147f470 node_0x7ffff14664f0)))
 (let (($x1124 (= node_0x7ffff147f470 node_0x7ffff14785d0)))
 (let (($x224 (= folt_0x7ffff147a500 (ite (bvslt node_0x7ffff146ab20 (_ bv0 64)) (_ bv1 1) (_ bv0 1)))))
 (let (($x138 (= node_0x7ffff1446bd0 folt_0x7ffff147a500)))
 (let (($x241 (or $x229 $x1124)))
 (let (($x1177 (= node_0x7ffff1446040 fogt_0x7ffff1475f20)))
 (let (($x203 (= fogt_0x7ffff1475f20 (ite (bvsgt node_0x7ffff146ab20 (_ bv0 64)) (_ bv1 1) (_ bv0 1)))))
 (let (($x58 (= node_0x7ffff146ab20 LdMem_0x7ffff146aca0)))
 (let (($x122 (= LdMem_0x7ffff146aca0 StMem_0x12a55410)))
 (let (($x993 (= node_0x7ffff14785d0 fmul_0x7ffff1478770)))
 (let (($x554 (and (= fdiv_0x7ffff1476d20 (bvsdiv (_ bv1 64) node_0x7ffff146ab20)) (or $x551 (and (distinct fdiv_0x7ffff1476d20 (_ bv0 64)) true)))))
 (let (($x1117 (= node_0x7ffff14763a0 fdiv_0x7ffff1476d20)))
 (let (($x768 (or (or (= node_0x7ffff1478200 (_ bv0 64)) $x521) (and (distinct fmul_0x7ffff1478770 (_ bv0 64)) true))))
 (let (($x764 (= fmul_0x7ffff1478770 (bvmul node_0x7ffff1478200 node_0x7ffff14763a0))))
 (let (($x769 (and $x764 $x768)))
 (let (($x538 (= node_0x7ffff1478200 fsub_0x7ffff14783a0)))
 (let (($x611 (= node_0x7ffff1477db0 LdMem_0x7ffff1477f30)))
 (let (($x714 (= StMem_0x12a6c720 pcso_node_0x12a6c570)))
 (let (($x671 (= LdMem_0x7ffff1477f30 StMem_0x12a6c720)))
 (let (($x775 (= fsub_0x7ffff14783a0 (bvsub node_0x7ffff1477350 node_0x7ffff1477db0))))
 (let (($x1232 (= LdMem_0x7ffff14754c0 StMem_0x12a5a7a0)))
 (let (($x693 (= fogt_0x7ffff148b050 (ite (bvsgt node_0x7ffff14757a0 node_0x7ffff147f470) (_ bv1 1) (_ bv0 1)))))
 (let (($x35 (= node_0x7ffff1472910 fmul_0x7ffff1472ab0)))
 (let (($x452 (= node_0x7ffff1469fe0 (_ bv0 64))))
 (let (($x453 (or $x451 $x452)))
 (let (($x494 (and (= fdiv_0x7ffff1470e30 (bvsdiv (_ bv1 64) node_0x7ffff1469fe0)) (or $x453 (and (distinct fdiv_0x7ffff1470e30 (_ bv0 64)) true)))))
 (let (($x735 (or (or (= node_0x7ffff1472540 (_ bv0 64)) (= node_0x7ffff1470cc0 (_ bv0 64))) (and (distinct fmul_0x7ffff1472ab0 (_ bv0 64)) true))))
 (let (($x731 (= fmul_0x7ffff1472ab0 (bvmul node_0x7ffff1472540 node_0x7ffff1470cc0))))
 (let (($x736 (and $x731 $x735)))
 (let (($x616 (= node_0x7ffff1472540 fsub_0x7ffff14726e0)))
 (let (($x1269 (= node_0x7ffff14720f0 LdMem_0x7ffff1472270)))
 (let (($x32 (= StMem_0x12a66250 pcso_node_0x12a66070)))
 (let (($x1235 (= LdMem_0x7ffff1472270 StMem_0x12a66250)))
 (let (($x742 (= fsub_0x7ffff14726e0 (bvsub node_0x7ffff1471490 node_0x7ffff14720f0))))
 (let (($x86 (= StMem_0x12a5cc60 pcso_node_0x12a5ca80)))
 (let (($x906 (= LdMem_0x7ffff146ed00 StMem_0x12a5cc60)))
 (let (($x113 (= node_0x7ffff14757a0 (_ bv0 64))))
 (let (($x880 (= node_0x7ffff14757a0 node_0x7ffff1472910)))
 (let (($x115 (= node_0x7ffff14757a0 node_0x7ffff146e380)))
 (let (($x190 (= folt_0x7ffff14705a0 (ite (bvslt node_0x7ffff1469fe0 (_ bv0 64)) (_ bv1 1) (_ bv0 1)))))
 (let (($x332 (= node_0x7ffff1445290 folt_0x7ffff14705a0)))
 (let (($x1204 (or $x191 $x115)))
 (let (($x1192 (= node_0x7ffff1444e70 fogt_0x7ffff146c340)))
 (let (($x175 (= fogt_0x7ffff146c340 (ite (bvsgt node_0x7ffff1469fe0 (_ bv0 64)) (_ bv1 1) (_ bv0 1)))))
 (let (($x1001 (= node_0x7ffff1469fe0 LdMem_0x7ffff146a160)))
 (let (($x823 (= LdMem_0x7ffff146a160 StMem_0x12a531d0)))
 (let (($x117 (= node_0x7ffff146e380 fmul_0x7ffff146e520)))
 (let (($x456 (and (= fdiv_0x7ffff146c9f0 (bvsdiv (_ bv1 64) node_0x7ffff1469fe0)) (or $x453 (and (distinct fdiv_0x7ffff146c9f0 (_ bv0 64)) true)))))
 (let (($x50 (= node_0x7ffff146c880 fdiv_0x7ffff146c9f0)))
 (let (($x711 (or (or (= node_0x7ffff146dfb0 (_ bv0 64)) $x421) (and (distinct fmul_0x7ffff146e520 (_ bv0 64)) true))))
 (let (($x707 (= fmul_0x7ffff146e520 (bvmul node_0x7ffff146dfb0 node_0x7ffff146c880))))
 (let (($x712 (and $x707 $x711)))
 (let (($x704 (= node_0x7ffff146dfb0 fsub_0x7ffff146e150)))
 (let (($x1201 (= node_0x7ffff146dbb0 LdMem_0x7ffff146dd30)))
 (let (($x36 (= StMem_0x12a60190 pcso_node_0x12a5ffb0)))
 (let (($x1163 (= LdMem_0x7ffff146dd30 StMem_0x12a60190)))
 (let (($x718 (= fsub_0x7ffff146e150 (bvsub node_0x7ffff146d080 node_0x7ffff146dbb0))))
 (let (($x542 (= StMem_0x12a5a3d0 pcso_node_0x12a5a1f0)))
 (let (($x1120 (= LdMem_0x7ffff146d200 StMem_0x12a5a3d0)))
 (and (or (not (= R0x7ffff1443440 (_ bv1 1))) $x1120) $x1120 $x542 (= node_0x7ffff146d080 LdMem_0x7ffff146d200) $x718 (or (not (= R0x7ffff1443440 (_ bv1 1))) $x1163) $x1163 $x36 $x1201 $x704 $x712 $x50 $x456 $x117 (or (not (= R0x7ffff1443440 (_ bv1 1))) $x823) $x823 (= StMem_0x12a531d0 pcso_node_0x12a52ff0) $x1001 $x175 $x1192 $x1204 (or (not (and $x197 $x191)) $x880) $x332 $x190 (or $x95 $x113) (or $x115 $x880 $x113) (or (not (= R0x7ffff1443440 (_ bv1 1))) $x906) $x906 $x86 (= node_0x7ffff1471490 LdMem_0x7ffff146ed00) $x742 (or (not (= R0x7ffff1443440 (_ bv1 1))) $x1235) $x1235 $x32 $x1269 $x616 $x736 (= node_0x7ffff1470cc0 fdiv_0x7ffff1470e30) $x494 $x35 $x693 (or (not (= R0x7ffff1443440 (_ bv1 1))) $x1232) $x1232 (= StMem_0x12a5a7a0 pcso_node_0x12a5a5f0) (= node_0x7ffff1477350 LdMem_0x7ffff14754c0) $x775 (or (not (= R0x7ffff1443440 (_ bv1 1))) $x671) $x671 $x714 $x611 $x538 $x769 $x1117 $x554 $x993 (or (not (= R0x7ffff1443440 (_ bv1 1))) $x122) $x122 (= StMem_0x12a55410 pcso_node_0x12a55260) $x58 $x203 $x1177 $x241 (or (not (and $x228 $x229)) $x501) $x138 $x224 (or $x944 $x442) (or $x1124 $x501 $x442) (or (not (= R0x7ffff1443440 (_ bv1 1))) $x111) $x111 (= StMem_0x12a5d030 pcso_node_0x12a5ce80) (= node_0x7ffff147b670 LdMem_0x7ffff1478f60) $x799 (or (not (= R0x7ffff1443440 (_ bv1 1))) $x978) $x978 (= StMem_0x12a727c0 pcso_node_0x12a72610) $x1184 $x1242 $x793 (= node_0x7ffff147aea0 fdiv_0x7ffff147b010) $x592 $x1019 $x867 $x688 $x1081 (or (not (= R0x7ffff1443440 (_ bv1 1))) $x1125) $x1125 $x1281 (= node_0x7ffff14800a0 LdMem_0x7ffff1480240) $x632 (or (not (= R0x7ffff1443440 (_ bv1 1))) $x853) $x853 (= StMem_0x12a78d00 pcso_node_0x12a78b50) $x333 $x959 $x626 (or (not (= R0x7ffff1443440 (_ bv1 1))) $x645) $x645 (= StMem_0x12a7b930 pcso_node_0x12a7b780) $x953 $x698 (or (not (= R0x7ffff1443440 (_ bv1 1))) $x1229) $x1229 (= StMem_0x12a57c90 pcso_node_0x12a57ae0) $x916 $x234 $x396 $x96 (or (not (and $x253 $x246)) $x121) $x1029 $x214 (or $x719 $x581) (or $x131 $x121 $x581) (or (not (= R0x7ffff1443440 (_ bv1 1))) $x1048) $x1048 $x1224 (= node_0x7ffff1485920 LdMem_0x7ffff14829f0) $x665 (or (not (= R0x7ffff1443440 (_ bv1 1))) $x1171) $x1171 (= StMem_0x12a84650 pcso_node_0x12a844a0) $x951 $x1227 $x659 (or (not (= R0x7ffff1443440 (_ bv1 1))) $x71) $x71 (= StMem_0x12a873f0 pcso_node_0x12a87240) $x1154 $x879 $x605 $x1265 $x834 $x948 $x839 (= node_0x7ffff148c630 select_0x7ffff148c7d0) $x845 (= node_0x7ffff144d590 ieq_0x7ffff1490840) (= node_0x7ffff144b020 islt_0x7ffff148f300) $x828 $x584 $x600 $x820 (= node_0x7ffff1449840 fogt_0x7ffff148ece0) (or (not (= R0x7ffff1443440 (_ bv1 1))) $x1159) $x1159 (= StMem_0x12a63270 pcso_node_0x12a63090) $x144 $x431 $x409 $x958 $x425 $x1215 $x778 (or (not (and $x197 $x191)) $x947) (or $x95 $x1173) $x1072 (or (not (= R0x7ffff1443440 (_ bv1 1))) $x90) $x90 (= StMem_0x12a69230 pcso_node_0x12a69050) $x60 $x474 $x920 $x70 $x468 $x873 $x394 (or (not (= R0x7ffff1443440 (_ bv1 1))) $x1102) $x1102 $x897 $x847 $x531 $x1225 $x743 $x525 $x996 $x1131 (or (not (and $x228 $x229)) $x1244) (or $x944 $x1220) (or $x934 $x1244 $x1220) (or (not (= R0x7ffff1443440 (_ bv1 1))) $x151) $x151 (= StMem_0x12a757a0 pcso_node_0x12a755f0) $x902 $x572 $x1142 $x938 $x566 $x1257 $x1213 $x389 $x490 (or (not (= R0x7ffff1443440 (_ bv1 1))) $x1053) $x1053 (= StMem_0x12a7ea40 pcso_node_0x12a7e890) $x1193 $x321 $x861 $x1057 $x315 (or (not (= R0x7ffff1443440 (_ bv1 1))) $x326) $x326 (= StMem_0x12a81670 pcso_node_0x12a814c0) $x1262 $x149 $x888 (or (not (and $x253 $x246)) $x42) (or $x719 $x726) (or $x1217 $x42 $x726) (or (not (= R0x7ffff1443440 (_ bv1 1))) $x155) $x155 (= StMem_0x12a8a3d0 pcso_node_0x12a8a220) $x1256 $x360 $x1248 $x1047 $x354 (or (not (= R0x7ffff1443440 (_ bv1 1))) $x568) $x568 (= StMem_0x12a8d000 pcso_node_0x12a8ce50) $x854 $x758 $x284 $x1179 $x279 $x1113 $x267 $x535 $x268 $x105 $x813 $x924)))))))))))))))))))))))))))))))))))))))))))))))))))))))))))))))))))))))))))))))))))))))))))))))))))))))))))))))))))))))))))))))))))))))))))))))))))))))))))))))))))))))))))))))))))))))))))))))))))))))))))))))))))))))))))))))))))))))))))))))))))))))))
(assert
 (= parg_node_0x107b61b0_CS0x406d048 node_0x12a56ef0))
(assert
 (let (($x1210 (= node_0x12a56ef0 LdMem_0x12a56cc0)))
 (let (($x868 (= StMem_0x12a527c0 parg_node_0x12a52970)))
 (let (($x701 (= LdMem_0x12a56cc0 StMem_0x12a527c0)))
 (and (or (not (= R0x7ffff1443440 (_ bv1 1))) $x701) $x701 $x868 $x1210)))))
(assert
 (= node_0x107b7d30_CS0x406d048 pcso_node_0x12a57ae0))
(assert
 (= parg_node_0x12a4df10_CS0x406d548 node_0x12a59e80))
(assert
 (let (($x898 (= node_0x12a59e80 LdMem_0x12a59830)))
 (let (($x943 (= StMem_0x12a599a0 parg_node_0x12a59b50)))
 (let (($x957 (= LdMem_0x12a59830 StMem_0x12a599a0)))
 (and (or (not (= R0x7ffff1443440 (_ bv1 1))) $x957) $x957 $x943 $x898)))))
(assert
 (= node_0x12a4fab0_CS0x406d548 pcso_node_0x12a5aa40))
(assert
 (= parg_node_0x107ae730_CS0x4072bc8 node_0x12a77f30))
(assert
 (let (($x374 (= node_0x12a77f30 LdMem_0x12a77bc0)))
 (let (($x133 (= StMem_0x12a5f620 parg_node_0x12a5f7d0)))
 (let (($x781 (= LdMem_0x12a77bc0 StMem_0x12a5f620)))
 (and (or (not (= R0x7ffff1443440 (_ bv1 1))) $x781) $x781 $x133 $x374)))))
(assert
 (= node_0x107b0280_CS0x4072bc8 pcso_node_0x12a78b50))
(assert
 (= parg_node_0x107b61b0_CS0x4072e38 node_0x12a7ab60))
(assert
 (let (($x1097 (= LdMem_0x12a7a7f0 StMem_0x12a527c0)))
 (and (or (not (= R0x7ffff1443440 (_ bv1 1))) $x1097) $x1097 (= node_0x12a7ab60 LdMem_0x12a7a7f0))))
(assert
 (= node_0x107b7d30_CS0x4072e38 pcso_node_0x12a7b780))
(assert
 (= parg_node_0x12a497d0_CS0x406d7b8 node_0x12a5c710))
(assert
 (let (($x966 (= node_0x12a5c710 LdMem_0x12a5c060)))
 (let (($x401 (= StMem_0x12a5c1d0 parg_node_0x12a5c380)))
 (let (($x37 (= LdMem_0x12a5c060 StMem_0x12a5c1d0)))
 (and (or (not (= R0x7ffff1443440 (_ bv1 1))) $x37) $x37 $x401 $x966)))))
(assert
 (= node_0x12a4b3d0_CS0x406d7b8 pcso_node_0x12a5d2d0))
(assert
 (= parg_node_0x107ae730_CS0x4074038 node_0x12a83880))
(assert
 (let (($x871 (= node_0x12a83880 LdMem_0x12a83510)))
 (let (($x1021 (= LdMem_0x12a83510 StMem_0x12a5f620)))
 (and (or (not (= R0x7ffff1443440 (_ bv1 1))) $x1021) $x1021 $x871))))
(assert
 (= node_0x107b0280_CS0x4074038 pcso_node_0x12a844a0))
(assert
 (and (distinct carg_node_0x7ffff1443e00 (_ bv0 64)) true))
(minimize LdMem_0x7ffff146a160)
(minimize pcso_node_0x12a5ce80)
(maximize node_0x12a5c710)
(minimize node_0x7ffff146b6d0)
(minimize node_0x7ffff1473c80)
(maximize node_0x7ffff147f470)
(minimize node_0x7ffff1483840)
(maximize pcso_node_0x12a69050)
(maximize StMem_0x12a55410)
(maximize LdMem_0x7ffff1489e50)
(minimize parg_node_0x12a497d0_CS0x406d7b8)
(minimize node_0x12a5c710)
(maximize StMem_0x12a527c0)
(minimize folt_0x7ffff147a500)
(maximize LdMem_0x7ffff146f8a0)
(minimize LdMem_0x7ffff1487650)
(maximize pcso_node_0x12a6f630)
(maximize node_0x7ffff14483e0)
(maximize select_0x7ffff148b940)
(minimize node_0x7ffff146d080)
(minimize folt_0x7ffff148cbf0)
(minimize fdiv_0x7ffff147b010)
(minimize node_0x7ffff14483e0)
(minimize fogt_0x7ffff148bd60)
(minimize StMem_0x12a873f0)
(minimize node_0x12a7ab60)
(minimize fdiv_0x7ffff1476d20)
(maximize node_0x7ffff146d080)
(minimize node_0x7ffff147a130)
(minimize LdMem_0x7ffff1478f60)
(minimize R0x7ffff1443440)
(maximize pcso_node_0x12a66070)
(maximize fdiv_0x7ffff1476d20)
(minimize fmul_0x7ffff147ef10)
(maximize fdiv_0x7ffff1487b60)
(maximize node_0x7ffff14833f0)
(maximize node_0x7ffff146dfb0)
(maximize parg_node_0x107b61b0_CS0x406d048)
(maximize node_0x12a56ef0)
(minimize node_0x7ffff148d890)
(maximize fdiv_0x7ffff148a360)
(minimize LdMem_0x7ffff1477f30)
(minimize node_0x7ffff14757a0)
(minimize pcso_node_0x12a5a1f0)
(maximize pcso_node_0x12a7e890)
(minimize StMem_0x12a5c1d0)
(minimize pcso_node_0x12a5aa40)
(minimize node_0x7ffff148a5e0)
(maximize node_0x7ffff148dcd0)
(minimize fdiv_0x7ffff1470e30)
(maximize fsub_0x7ffff1489370)
(maximize node_0x7ffff1446040)
(minimize node_0x7ffff148a910)
(minimize node_0x7ffff14744a0)
(maximize fogt_0x7ffff146c340)
(maximize LdMem_0x7ffff146d200)
(minimize StMem_0x12a55410)
(minimize fogt_0x7ffff148e360)
(minimize LdMem_0x12a7a7f0)
(maximize node_0x7ffff1480bf0)
(minimize node_0x107b0280_CS0x4074038)
(minimize node_0x7ffff1449060)
(maximize node_0x7ffff14881e0)
(maximize pcso_node_0x12a5d2d0)
(maximize fmul_0x7ffff146e520)
(minimize select_0x7ffff148c270)
(maximize pcso_node_0x12a63090)
(minimize fsub_0x7ffff1489370)
(minimize StMem_0x12a8d000)
(minimize node_0x12a4b3d0_CS0x406d7b8)
(minimize fmul_0x7ffff146e520)
(maximize node_0x7ffff148c0d0)
(maximize StMem_0x12a5abf0)
(maximize node_0x7ffff147aea0)
(maximize pcso_node_0x12a5ce80)
(maximize node_0x7ffff147e550)
(maximize fogt_0x7ffff148e360)
(minimize node_0x7ffff1477db0)
(maximize StMem_0x12a7b930)
(minimize fmul_0x7ffff1466690)
(minimize StMem_0x12a599a0)
(minimize node_0x7ffff1478dc0)
(maximize parg_node_0x107ae730_CS0x4074038)
(maximize node_0x7ffff1488d80)
(minimize node_0x12a83880)
(minimize StMem_0x12a527c0)
(minimize node_0x7ffff147f470)
(check-sat)
(get-objectives)
